RAW/CMTY/fspd/CMT9Y.vrp_seed-4.out
1160.682024	21.912	32.603
