RAW/CMTY/fspd/CMT9Y.vrp_seed-4.sol
Route #1: 5 10 54 39 89 117 73 106 125 122
Route #2: 139 47 56 146 149 4 109 144 12
Route #3: 108 52 15 45 91 72 33 124 123 71 90 103
Route #4: 100 2 83 131 20 59 3 101 22 51 32 77
Route #5: 11 126 16 127 53 129 29 79 21 118 130 50 78
Route #6: 81 8 140 82 31 28 70 80 120 1 119
Route #7: 27 138 48 112 61 7 69 23 57 6 102 46
Route #8: 63 17 147 92 42 93 65 107 44 137 37
Route #9: 76 49 104 30 105 75 74 34 9 62 38
Route #10: 97 86 43 99 114 113 26 60
Route #11: 148 141 94 40 88 64 19 150 87 142 145
Route #12: 116 121 115 36 85 35 84 128
Route #13: 110 133 14 58 25 95 96 24 98 132 68
Route #14: 143 135 111 66 41 136 13 67 134 55 18
Cost 1160.682024